c description: Random 3-CNF over 20 variables and 85 clauses
c generator: CNFgen (0.9.2)
c copyright: (C) 2012-2022 Massimo Lauria <massimo.lauria@uniroma1.it>
c url: https://massimolauria.net/cnfgen
c command line: cnfgen --output CNF_4.28/20_bit_85_732.cnf randkcnf 3 20 85
c
p cnf 20 85
-8 12 16 0
5 10 -19 0
2 7 15 0
-1 4 19 0
6 -11 -16 0
4 -7 14 0
-1 7 -12 0
-7 16 -20 0
9 -14 -18 0
-3 10 11 0
-4 8 -13 0
-17 18 20 0
1 5 17 0
-14 -16 19 0
-7 -12 -19 0
1 -7 20 0
-1 10 -15 0
2 -14 -18 0
-6 -12 -15 0
-6 -11 16 0
-5 -6 -18 0
-2 10 16 0
-15 16 -17 0
-5 13 19 0
-1 -6 15 0
3 -9 -17 0
10 -14 20 0
1 15 20 0
-17 -18 -19 0
13 -14 -17 0
2 12 -18 0
3 8 -16 0
-2 12 14 0
2 -9 -10 0
2 -13 -19 0
-14 17 18 0
-1 6 -13 0
-14 17 -20 0
9 11 18 0
-5 12 18 0
-3 7 19 0
4 -14 18 0
4 14 -17 0
-2 -10 -15 0
2 5 17 0
8 -13 15 0
3 15 -20 0
-3 -9 -13 0
1 3 17 0
-6 7 -16 0
-1 6 -17 0
-8 -12 15 0
1 5 -8 0
5 15 18 0
-3 -10 -13 0
10 -11 16 0
-14 -15 -19 0
-5 -9 -17 0
-3 14 15 0
-4 -8 -16 0
4 14 20 0
-9 10 -13 0
12 -17 -20 0
-9 11 16 0
8 -9 -17 0
2 10 15 0
6 14 -15 0
-6 -16 19 0
-5 -14 15 0
7 17 19 0
7 11 -14 0
-5 6 19 0
-6 11 16 0
2 -9 -14 0
1 13 -16 0
3 -7 10 0
2 17 -19 0
2 -6 -16 0
-8 -12 -20 0
-4 -15 19 0
-8 -16 20 0
4 -11 16 0
-8 -15 -18 0
5 6 16 0
-8 9 12 0
